;; Mutation-Based Equivalence Benchmark
;; Source:     AutomatArk / instance08253.smt2
;; Mutations:  opt_to_required, range_shrink_hi, intersect_no_at_sign
;; Status:     sat
;;
;; Original regex vs mutated regex
;; Equivalence check: unsat ⟺ L(R1) = L(R2)

(set-info :smt-lib-version 2.6)
(set-info :category "mutation")
(set-info :status sat)
(set-logic QF_S)


;; R1: original
;; R2: mutated (opt_to_required, range_shrink_hi, intersect_no_at_sign)
(assert
  (not
    (=
      (re.++ (str.to_re "http") (re.opt (str.to_re "s")) (str.to_re "://") (re.union (re.++ (str.to_re "www") re.allchar (str.to_re "facebook")) (re.++ ((_ re.loop 2 2) (re.union (re.range "a" "z") (re.range "A" "Z"))) (str.to_re "-") ((_ re.loop 2 2) (re.union (re.range "a" "z") (re.range "A" "Z"))) re.allchar (str.to_re "facebook")) (str.to_re "facebook")) (str.to_re ".com/") (re.union (re.++ (str.to_re "pages/") (re.+ (re.union (re.range "a" "z") (re.range "A" "Z") (re.range "0" "9") (str.to_re ".") (str.to_re "-"))) (str.to_re "/") (re.+ (re.range "0" "9"))) (re.+ (re.union (re.range "a" "z") (re.range "A" "Z") (re.range "0" "9") (str.to_re ".") (str.to_re "-")))) (re.opt (str.to_re "/")) (str.to_re "\u{a}"))
      (re.++ (str.to_re "http") (re.opt (str.to_re "s")) (str.to_re "://") (re.union (re.++ (str.to_re "www") re.allchar (re.inter (str.to_re "facebook") (re.comp (re.++ re.all (str.to_re "@") re.all)))) (re.++ ((_ re.loop 2 2) (re.union (re.range "a" "z") (re.range "A" "Y"))) (str.to_re "-") ((_ re.loop 2 2) (re.union (re.range "a" "z") (re.range "A" "Z"))) re.allchar (str.to_re "facebook")) (str.to_re "facebook")) (str.to_re ".com/") (re.union (re.++ (str.to_re "pages/") (re.+ (re.union (re.range "a" "z") (re.range "A" "Z") (re.range "0" "9") (str.to_re ".") (str.to_re "-"))) (str.to_re "/") (re.+ (re.range "0" "9"))) (re.+ (re.union (re.range "a" "z") (re.range "A" "Z") (re.range "0" "9") (str.to_re ".") (str.to_re "-")))) str.to_re "/"))))

(check-sat)
(exit)
